(set-option :produce-models true); benchmark generated from python API
(set-info :status unknown)
(declare-fun l_0_0_7 () Real)
(declare-fun l_0_0_1 () Real)
(declare-fun _a_0_ () Real)
(declare-fun l_0_0_8 () Real)
(declare-fun l_0_0_2 () Real)
(declare-fun _a_1_ () Real)
(declare-fun l_0_0_6 () Real)
(declare-fun l_0_0_5 () Real)
(declare-fun l_0_0_4 () Real)
(declare-fun l_0_0_12 () Real)
(declare-fun l_0_0_11 () Real)
(declare-fun l_0_0_10 () Real)
(declare-fun _a_2_ () Real)
(declare-fun l_0_0_3 () Real)
(declare-fun l_0_0_9 () Real)
(declare-fun _a_3_ () Real)
(declare-fun _a_4_ () Real)
(declare-fun _a_5_ () Real)
(declare-fun l_0_1_7 () Real)
(declare-fun l_0_1_13 () Real)
(declare-fun l_0_1_1 () Real)
(declare-fun l_0_1_16 () Real)
(declare-fun l_0_1_10 () Real)
(declare-fun l_0_1_4 () Real)
(declare-fun l_0_1_9 () Real)
(declare-fun l_0_1_8 () Real)
(declare-fun l_0_1_15 () Real)
(declare-fun l_0_1_14 () Real)
(declare-fun l_0_1_2 () Real)
(declare-fun l_0_1_3 () Real)
(declare-fun l_0_1_17 () Real)
(declare-fun l_0_1_11 () Real)
(declare-fun l_0_1_5 () Real)
(declare-fun l_0_1_18 () Real)
(declare-fun l_0_1_12 () Real)
(declare-fun l_0_1_6 () Real)
(declare-fun l_0_2_7 () Real)
(declare-fun l_0_2_13 () Real)
(declare-fun l_0_2_1 () Real)
(declare-fun l_0_2_9 () Real)
(declare-fun l_0_2_8 () Real)
(declare-fun l_0_2_15 () Real)
(declare-fun l_0_2_14 () Real)
(declare-fun l_0_2_2 () Real)
(declare-fun l_0_2_3 () Real)
(declare-fun l_0_2_16 () Real)
(declare-fun l_0_2_10 () Real)
(declare-fun l_0_2_4 () Real)
(declare-fun l_0_2_12 () Real)
(declare-fun l_0_2_11 () Real)
(declare-fun l_0_2_6 () Real)
(declare-fun l_0_2_5 () Real)
(declare-fun l_0_2_17 () Real)
(declare-fun l_0_2_18 () Real)
(assert
 (let ((?x63 (* l_0_0_7 l_0_0_7)))
 (= (- (- _a_0_ (* (* 2.0 l_0_0_1) l_0_0_1)) ?x63) 0.0)))
(assert
 (let ((?x103 (- (- _a_1_ (* (* 4.0 l_0_0_1) l_0_0_2)) (* (* 2.0 l_0_0_7) l_0_0_8))))
 (= ?x103 0.0)))
(assert
 (let ((?x124 (* l_0_0_12 l_0_0_12)))
 (let ((?x122 (* l_0_0_11 l_0_0_11)))
 (let ((?x123 (- (- (+ _a_2_ (* l_0_0_1 l_0_0_1)) (* l_0_0_10 l_0_0_10)) ?x122)))
 (let ((?x131 (- (- (- ?x123 ?x124) (* (* 2.0 l_0_0_4) l_0_0_4)) (* (* 2.0 l_0_0_5) l_0_0_5))))
 (= (- ?x131 (* (* 2.0 l_0_0_6) l_0_0_6)) 0.0))))))
(assert
 (let ((?x169 (- (- _a_3_ (* (* 2.0 l_0_0_10) l_0_0_8)) (* (* 2.0 l_0_0_11) l_0_0_9))))
 (let ((?x175 (- (- ?x169 (* (* 4.0 l_0_0_2) l_0_0_4)) (* (* 4.0 l_0_0_3) l_0_0_5))))
 (= ?x175 0.0))))
(assert
 (let ((?x211 (* l_0_0_9 l_0_0_9)))
 (let ((?x209 (* l_0_0_8 l_0_0_8)))
 (let ((?x85 (* l_0_0_1 l_0_0_1)))
 (let ((?x202 (+ _a_4_ ?x85)))
 (let ((?x208 (- (- ?x202 (* (* 2.0 l_0_0_2) l_0_0_2)) (* (* 2.0 l_0_0_3) l_0_0_3))))
 (= (- (- ?x208 ?x209) ?x211) 0.0)))))))
(assert
 (let ((?x236 (- (- _a_5_ (* (* 4.0 l_0_0_1) l_0_0_4)) (* (* 2.0 l_0_0_10) l_0_0_7))))
 (= ?x236 0.0)))
(assert
 (= (* (* 2.0 l_0_0_1) l_0_0_2) 0.0))
(assert
 (= (* (* 2.0 l_0_0_1) l_0_0_4) 0.0))
(assert
 (let ((?x220 (* l_0_0_3 l_0_0_3)))
 (let ((?x214 (* l_0_0_2 l_0_0_2)))
 (let ((?x256 (+ ?x214 ?x220)))
 (= ?x256 0.0)))))
(assert
 (let ((?x261 (+ (* (* 2.0 l_0_0_2) l_0_0_4) (* (* 2.0 l_0_0_3) l_0_0_5))))
 (= ?x261 0.0)))
(assert
 (let ((?x157 (* l_0_0_6 l_0_0_6)))
 (let ((?x151 (* l_0_0_5 l_0_0_5)))
 (let ((?x145 (* l_0_0_4 l_0_0_4)))
 (let ((?x220 (* l_0_0_3 l_0_0_3)))
 (let ((?x214 (* l_0_0_2 l_0_0_2)))
 (let ((?x256 (+ ?x214 ?x220)))
 (= (+ (+ (+ ?x256 ?x145) ?x151) ?x157) 0.0))))))))
(assert
 (= (* (* 2.0 l_0_0_1) l_0_0_2) 0.0))
(assert
 (= (* (* 2.0 l_0_0_1) l_0_0_4) 0.0))
(assert
 (let ((?x261 (+ (* (* 2.0 l_0_0_2) l_0_0_4) (* (* 2.0 l_0_0_3) l_0_0_5))))
 (= ?x261 0.0)))
(assert
 (let ((?x157 (* l_0_0_6 l_0_0_6)))
 (= (+ (+ (* l_0_0_4 l_0_0_4) (* l_0_0_5 l_0_0_5)) ?x157) 0.0)))
(assert
 (>= l_0_0_1 0.0))
(assert
 (>= l_0_0_3 0.0))
(assert
 (>= l_0_0_6 0.0))
(assert
 (>= l_0_0_7 0.0))
(assert
 (>= l_0_0_9 0.0))
(assert
 (>= l_0_0_12 0.0))
(assert
 (let ((?x292 (+ (- (* (* (- _a_0_) l_0_1_1) l_0_1_1) (* l_0_1_13 l_0_1_13)) (* 3.0 (* l_0_1_7 l_0_1_7)))))
 (= (+ ?x292 (/ 121.0 100.0)) 0.0)))
(assert
 (let ((?x311 (- (* (* (* (- 2.0) _a_0_) l_0_1_1) l_0_1_4) (* (* _a_5_ l_0_1_1) l_0_1_1))))
 (let ((?x318 (- (+ ?x311 (* (* 6.0 l_0_1_10) l_0_1_7)) (* (* 2.0 l_0_1_13) l_0_1_16))))
 (= (+ ?x318 1.0) 0.0))))
(assert
 (let ((?x361 (* l_0_1_9 l_0_1_9)))
 (let ((?x362 (* 3.0 ?x361)))
 (let ((?x358 (* l_0_1_8 l_0_1_8)))
 (let ((?x359 (* 3.0 ?x358)))
 (let ((?x289 (* l_0_1_7 l_0_1_7)))
 (let ((?x355 (* l_0_1_15 l_0_1_15)))
 (let ((?x353 (* l_0_1_14 l_0_1_14)))
 (let ((?x349 (- (* (- _a_0_) (+ (* l_0_1_2 l_0_1_2) (* l_0_1_3 l_0_1_3))) (* (* (* 2.0 _a_1_) l_0_1_1) l_0_1_2))))
 (let ((?x357 (- (- (- (- ?x349 (* (* _a_4_ l_0_1_1) l_0_1_1)) ?x353) ?x355) ?x289)))
 (= (- (+ (+ ?x357 ?x359) ?x362) (/ 1.0 5.0)) 0.0)))))))))))
(assert
 (let ((?x403 (- (* (* (* (- 2.0) _a_0_) l_0_1_1) l_0_1_2) (* (* _a_1_ l_0_1_1) l_0_1_1))))
 (let ((?x408 (+ (- ?x403 (* (* 2.0 l_0_1_13) l_0_1_14)) (* (* 6.0 l_0_1_7) l_0_1_8))))
 (= ?x408 0.0))))
(assert
 (let ((?x432 (+ (* (* 2.0 l_0_1_2) l_0_1_4) (* (* 2.0 l_0_1_3) l_0_1_5))))
 (let ((?x284 (- _a_0_)))
 (let ((?x438 (- (- (* ?x284 ?x432) (* (* (* 2.0 _a_1_) l_0_1_1) l_0_1_4)) (* (* _a_3_ l_0_1_1) l_0_1_1))))
 (let ((?x444 (+ (- ?x438 (* (* (* 2.0 _a_5_) l_0_1_1) l_0_1_2)) (* (* 6.0 l_0_1_10) l_0_1_8))))
 (let ((?x450 (- (+ ?x444 (* (* 6.0 l_0_1_11) l_0_1_9)) (* (* 2.0 l_0_1_14) l_0_1_16))))
 (= (- ?x450 (* (* 2.0 l_0_1_15) l_0_1_17)) 0.0)))))))
(assert
 (let ((?x289 (* l_0_1_7 l_0_1_7)))
 (let ((?x526 (* l_0_1_18 l_0_1_18)))
 (let ((?x524 (* l_0_1_17 l_0_1_17)))
 (let ((?x522 (* l_0_1_16 l_0_1_16)))
 (let ((?x519 (* l_0_1_12 l_0_1_12)))
 (let ((?x520 (* 3.0 ?x519)))
 (let ((?x516 (* l_0_1_11 l_0_1_11)))
 (let ((?x517 (* 3.0 ?x516)))
 (let ((?x513 (* l_0_1_10 l_0_1_10)))
 (let ((?x514 (* 3.0 ?x513)))
 (let ((?x505 (* l_0_1_6 l_0_1_6)))
 (let ((?x506 (+ (+ (* l_0_1_4 l_0_1_4) (* l_0_1_5 l_0_1_5)) ?x505)))
 (let ((?x284 (- _a_0_)))
 (let ((?x512 (- (- (* ?x284 ?x506) (* (* _a_2_ l_0_1_1) l_0_1_1)) (* (* (* 2.0 _a_5_) l_0_1_1) l_0_1_4))))
 (let ((?x528 (- (- (- (- (+ (+ (+ ?x512 ?x514) ?x517) ?x520) ?x522) ?x524) ?x526) ?x289)))
 (= ?x528 0.0)))))))))))))))))
(assert
 (let ((?x572 (* (* 2.0 l_0_1_7) l_0_1_8)))
 (let ((?x570 (- (* (- _a_1_) (+ (* l_0_1_2 l_0_1_2) (* l_0_1_3 l_0_1_3))) (* (* (* 2.0 _a_4_) l_0_1_1) l_0_1_2))))
 (= (- ?x570 ?x572) 0.0))))
(assert
 (let ((?x603 (* 2.0 l_0_1_10)))
 (let ((?x604 (* ?x603 l_0_1_7)))
 (let ((?x432 (+ (* (* 2.0 l_0_1_2) l_0_1_4) (* (* 2.0 l_0_1_3) l_0_1_5))))
 (let ((?x565 (- _a_1_)))
 (let ((?x600 (- (- (* ?x565 ?x432) (* (* (* 2.0 _a_3_) l_0_1_1) l_0_1_2)) (* (* (* 2.0 _a_4_) l_0_1_1) l_0_1_4))))
 (let ((?x602 (- ?x600 (* _a_5_ (+ (* l_0_1_2 l_0_1_2) (* l_0_1_3 l_0_1_3))))))
 (= (- ?x602 ?x604) 0.0))))))))
(assert
 (let ((?x572 (* (* 2.0 l_0_1_7) l_0_1_8)))
 (let ((?x432 (+ (* (* 2.0 l_0_1_2) l_0_1_4) (* (* 2.0 l_0_1_3) l_0_1_5))))
 (let ((?x505 (* l_0_1_6 l_0_1_6)))
 (let ((?x506 (+ (+ (* l_0_1_4 l_0_1_4) (* l_0_1_5 l_0_1_5)) ?x505)))
 (let ((?x565 (- _a_1_)))
 (let ((?x651 (- (- (* ?x565 ?x506) (* (* (* 2.0 _a_2_) l_0_1_1) l_0_1_2)) (* (* (* 2.0 _a_3_) l_0_1_1) l_0_1_4))))
 (= (- (- ?x651 (* _a_5_ ?x432)) ?x572) 0.0))))))))
(assert
 (let ((?x603 (* 2.0 l_0_1_10)))
 (let ((?x604 (* ?x603 l_0_1_7)))
 (let ((?x505 (* l_0_1_6 l_0_1_6)))
 (let ((?x506 (+ (+ (* l_0_1_4 l_0_1_4) (* l_0_1_5 l_0_1_5)) ?x505)))
 (let ((?x703 (- (- (* (* (* (- 2.0) _a_2_) l_0_1_1) l_0_1_4) (* _a_5_ ?x506)) ?x604)))
 (= ?x703 0.0)))))))
(assert
 (let ((?x361 (* l_0_1_9 l_0_1_9)))
 (let ((?x358 (* l_0_1_8 l_0_1_8)))
 (let ((?x519 (* l_0_1_12 l_0_1_12)))
 (let ((?x516 (* l_0_1_11 l_0_1_11)))
 (let ((?x513 (* l_0_1_10 l_0_1_10)))
 (let ((?x505 (* l_0_1_6 l_0_1_6)))
 (let ((?x506 (+ (+ (* l_0_1_4 l_0_1_4) (* l_0_1_5 l_0_1_5)) ?x505)))
 (let ((?x432 (+ (* (* 2.0 l_0_1_2) l_0_1_4) (* (* 2.0 l_0_1_3) l_0_1_5))))
 (let ((?x730 (- (* (- _a_2_) (+ (* l_0_1_2 l_0_1_2) (* l_0_1_3 l_0_1_3))) (* _a_3_ ?x432))))
 (let ((?x737 (- (- (- (- (- (- ?x730 (* _a_4_ ?x506)) ?x513) ?x516) ?x519) ?x358) ?x361)))
 (= ?x737 0.0))))))))))))
(assert
 (let ((?x800 (* (* 2.0 l_0_1_11) l_0_1_9)))
 (let ((?x603 (* 2.0 l_0_1_10)))
 (let ((?x797 (* ?x603 l_0_1_8)))
 (let ((?x505 (* l_0_1_6 l_0_1_6)))
 (let ((?x506 (+ (+ (* l_0_1_4 l_0_1_4) (* l_0_1_5 l_0_1_5)) ?x505)))
 (let ((?x432 (+ (* (* 2.0 l_0_1_2) l_0_1_4) (* (* 2.0 l_0_1_3) l_0_1_5))))
 (let ((?x727 (- _a_2_)))
 (= (- (- (- (* ?x727 ?x432) (* _a_3_ ?x506)) ?x797) ?x800) 0.0)))))))))
(assert
 (let ((?x519 (* l_0_1_12 l_0_1_12)))
 (let ((?x516 (* l_0_1_11 l_0_1_11)))
 (let ((?x513 (* l_0_1_10 l_0_1_10)))
 (let ((?x505 (* l_0_1_6 l_0_1_6)))
 (let ((?x506 (+ (+ (* l_0_1_4 l_0_1_4) (* l_0_1_5 l_0_1_5)) ?x505)))
 (let ((?x727 (- _a_2_)))
 (= (- (- (- (* ?x727 ?x506) ?x513) ?x516) ?x519) 0.0))))))))
(assert
 (let ((?x800 (* (* 2.0 l_0_1_11) l_0_1_9)))
 (let ((?x603 (* 2.0 l_0_1_10)))
 (let ((?x797 (* ?x603 l_0_1_8)))
 (let ((?x432 (+ (* (* 2.0 l_0_1_2) l_0_1_4) (* (* 2.0 l_0_1_3) l_0_1_5))))
 (let ((?x858 (- (* (- _a_3_) (+ (* l_0_1_2 l_0_1_2) (* l_0_1_3 l_0_1_3))) (* _a_4_ ?x432))))
 (= (- (- ?x858 ?x797) ?x800) 0.0)))))))
(assert
 (let ((?x361 (* l_0_1_9 l_0_1_9)))
 (let ((?x358 (* l_0_1_8 l_0_1_8)))
 (let ((?x893 (- (* (- _a_4_) (+ (* l_0_1_2 l_0_1_2) (* l_0_1_3 l_0_1_3))) ?x358)))
 (= (- ?x893 ?x361) 0.0)))))
(assert
 (>= l_0_1_1 0.0))
(assert
 (>= l_0_1_3 0.0))
(assert
 (>= l_0_1_6 0.0))
(assert
 (>= l_0_1_7 0.0))
(assert
 (>= l_0_1_9 0.0))
(assert
 (>= l_0_1_12 0.0))
(assert
 (>= l_0_1_13 0.0))
(assert
 (>= l_0_1_15 0.0))
(assert
 (>= l_0_1_18 0.0))
(assert
 (let ((?x930 (* l_0_2_13 l_0_2_13)))
 (let ((?x924 (* 1.0 _a_3_)))
 (let ((?x921 (- (+ (* (* (- _a_0_) l_0_2_1) l_0_2_1) _a_0_) (* 1.0 _a_1_))))
 (let ((?x929 (+ (+ (- (+ ?x921 (* 1.0 _a_2_)) ?x924) (* 1.0 _a_4_)) (* 1.0 _a_5_))))
 (= (- (- ?x929 ?x930) (* (* 3.0 l_0_2_7) l_0_2_7)) 0.0))))))
(assert
 (let ((?x948 (* l_0_2_7 l_0_2_7)))
 (let ((?x970 (* l_0_2_15 l_0_2_15)))
 (let ((?x968 (* l_0_2_14 l_0_2_14)))
 (let ((?x567 (* 2.0 _a_4_)))
 (let ((?x924 (* 1.0 _a_3_)))
 (let ((?x961 (- (* (- _a_0_) (+ (* l_0_2_2 l_0_2_2) (* l_0_2_3 l_0_2_3))) (* (* (* 2.0 _a_1_) l_0_2_1) l_0_2_2))))
 (let ((?x967 (- (- (+ (+ ?x961 _a_1_) ?x924) (* (* _a_4_ l_0_2_1) l_0_2_1)) ?x567)))
 (let ((?x975 (- (+ (- (- ?x967 ?x968) ?x970) ?x948) (* (* 3.0 l_0_2_8) l_0_2_8))))
 (= (- ?x975 (* (* 3.0 l_0_2_9) l_0_2_9)) 0.0))))))))))
(assert
 (let ((?x567 (* 2.0 _a_4_)))
 (let ((?x924 (* 1.0 _a_3_)))
 (let ((?x1024 (- (+ (+ (* (* (* (- 2.0) _a_0_) l_0_2_1) l_0_2_4) _a_1_) ?x924) ?x567)))
 (let ((?x1030 (- (- ?x1024 (* (* _a_5_ l_0_2_1) l_0_2_1)) (* (* 6.0 l_0_2_10) l_0_2_7))))
 (= (- ?x1030 (* (* 2.0 l_0_2_13) l_0_2_16)) 0.0))))))
(assert
 (let ((?x1013 (* l_0_2_9 l_0_2_9)))
 (let ((?x1007 (* l_0_2_8 l_0_2_8)))
 (let ((?x1079 (* l_0_2_12 l_0_2_12)))
 (let ((?x1077 (* l_0_2_11 l_0_2_11)))
 (let ((?x1075 (* l_0_2_10 l_0_2_10)))
 (let ((?x1071 (* l_0_2_6 l_0_2_6)))
 (let ((?x1072 (+ (+ (* l_0_2_4 l_0_2_4) (* l_0_2_5 l_0_2_5)) ?x1071)))
 (let ((?x1064 (+ (* (* 2.0 l_0_2_2) l_0_2_4) (* (* 2.0 l_0_2_3) l_0_2_5))))
 (let ((?x1058 (* 4.0 _a_2_)))
 (let ((?x1059 (+ (* (- _a_2_) (+ (* l_0_2_2 l_0_2_2) (* l_0_2_3 l_0_2_3))) ?x1058)))
 (let ((?x1078 (+ (+ (- (+ (- ?x1059 (* _a_3_ ?x1064)) _a_3_) (* _a_4_ ?x1072)) ?x1075) ?x1077)))
 (= (+ (+ (+ ?x1078 ?x1079) ?x1007) ?x1013) 0.0)))))))))))))
(assert
 (let ((?x1137 (* (* 2.0 l_0_2_11) l_0_2_9)))
 (let ((?x1133 (* 2.0 l_0_2_10)))
 (let ((?x1134 (* ?x1133 l_0_2_8)))
 (let ((?x1071 (* l_0_2_6 l_0_2_6)))
 (let ((?x1072 (+ (+ (* l_0_2_4 l_0_2_4) (* l_0_2_5 l_0_2_5)) ?x1071)))
 (let ((?x1058 (* 4.0 _a_2_)))
 (let ((?x1064 (+ (* (* 2.0 l_0_2_2) l_0_2_4) (* (* 2.0 l_0_2_3) l_0_2_5))))
 (let ((?x727 (- _a_2_)))
 (= (+ (+ (- (+ (* ?x727 ?x1064) ?x1058) (* _a_3_ ?x1072)) ?x1134) ?x1137) 0.0))))))))))
(assert
 (let ((?x439 (* 2.0 _a_5_)))
 (let ((?x595 (* 2.0 _a_3_)))
 (let ((?x1058 (* 4.0 _a_2_)))
 (let ((?x1064 (+ (* (* 2.0 l_0_2_2) l_0_2_4) (* (* 2.0 l_0_2_3) l_0_2_5))))
 (let ((?x284 (- _a_0_)))
 (let ((?x1172 (+ (- (* ?x284 ?x1064) (* (* (* 2.0 _a_1_) l_0_2_1) l_0_2_4)) ?x1058)))
 (let ((?x1179 (- (- (- ?x1172 (* (* _a_3_ l_0_2_1) l_0_2_1)) ?x595) (* (* ?x439 l_0_2_1) l_0_2_2))))
 (let ((?x1185 (- (- (+ ?x1179 ?x439) (* (* 6.0 l_0_2_10) l_0_2_8)) (* (* 6.0 l_0_2_11) l_0_2_9))))
 (let ((?x1191 (- (- ?x1185 (* (* 2.0 l_0_2_14) l_0_2_16)) (* (* 2.0 l_0_2_15) l_0_2_17))))
 (= ?x1191 0.0)))))))))))
(assert
 (let ((?x1079 (* l_0_2_12 l_0_2_12)))
 (let ((?x1077 (* l_0_2_11 l_0_2_11)))
 (let ((?x1075 (* l_0_2_10 l_0_2_10)))
 (let ((?x1071 (* l_0_2_6 l_0_2_6)))
 (let ((?x1072 (+ (+ (* l_0_2_4 l_0_2_4) (* l_0_2_5 l_0_2_5)) ?x1071)))
 (let ((?x727 (- _a_2_)))
 (= (+ (+ (+ (+ (* ?x727 ?x1072) _a_2_) ?x1075) ?x1077) ?x1079) 0.0))))))))
(assert
 (let ((?x948 (* l_0_2_7 l_0_2_7)))
 (let ((?x1283 (* l_0_2_18 l_0_2_18)))
 (let ((?x1281 (* l_0_2_17 l_0_2_17)))
 (let ((?x1279 (* l_0_2_16 l_0_2_16)))
 (let ((?x924 (* 1.0 _a_3_)))
 (let ((?x646 (* 2.0 _a_2_)))
 (let ((?x1071 (* l_0_2_6 l_0_2_6)))
 (let ((?x1072 (+ (+ (* l_0_2_4 l_0_2_4) (* l_0_2_5 l_0_2_5)) ?x1071)))
 (let ((?x284 (- _a_0_)))
 (let ((?x1265 (- (+ (- (* ?x284 ?x1072) (* (* _a_2_ l_0_2_1) l_0_2_1)) ?x646) ?x924)))
 (let ((?x1269 (+ (- (+ ?x1265 _a_4_) (* (* (* 2.0 _a_5_) l_0_2_1) l_0_2_4)) _a_5_)))
 (let ((?x1275 (- (- ?x1269 (* (* 3.0 l_0_2_10) l_0_2_10)) (* (* 3.0 l_0_2_11) l_0_2_11))))
 (let ((?x1284 (- (- (- (- ?x1275 (* (* 3.0 l_0_2_12) l_0_2_12)) ?x1279) ?x1281) ?x1283)))
 (= (+ ?x1284 ?x948) 0.0)))))))))))))))
(assert
 (let ((?x1137 (* (* 2.0 l_0_2_11) l_0_2_9)))
 (let ((?x1133 (* 2.0 l_0_2_10)))
 (let ((?x1134 (* ?x1133 l_0_2_8)))
 (let ((?x1064 (+ (* (* 2.0 l_0_2_2) l_0_2_4) (* (* 2.0 l_0_2_3) l_0_2_5))))
 (let ((?x595 (* 2.0 _a_3_)))
 (let ((?x1337 (+ (* (- _a_3_) (+ (* l_0_2_2 l_0_2_2) (* l_0_2_3 l_0_2_3))) ?x595)))
 (= (+ (+ (- ?x1337 (* _a_4_ ?x1064)) ?x1134) ?x1137) 0.0))))))))
(assert
 (let ((?x1379 (* (* 2.0 l_0_2_7) l_0_2_8)))
 (let ((?x1064 (+ (* (* 2.0 l_0_2_2) l_0_2_4) (* (* 2.0 l_0_2_3) l_0_2_5))))
 (let ((?x595 (* 2.0 _a_3_)))
 (let ((?x1071 (* l_0_2_6 l_0_2_6)))
 (let ((?x1072 (+ (+ (* l_0_2_4 l_0_2_4) (* l_0_2_5 l_0_2_5)) ?x1071)))
 (let ((?x565 (- _a_1_)))
 (let ((?x1374 (- (- (* ?x565 ?x1072) (* (* (* 2.0 _a_2_) l_0_2_1) l_0_2_2)) (* (* ?x595 l_0_2_1) l_0_2_4))))
 (= (+ (- (+ ?x1374 ?x595) (* _a_5_ ?x1064)) ?x1379) 0.0)))))))))
(assert
 (let ((?x1133 (* 2.0 l_0_2_10)))
 (let ((?x1428 (* ?x1133 l_0_2_7)))
 (let ((?x1071 (* l_0_2_6 l_0_2_6)))
 (let ((?x1072 (+ (+ (* l_0_2_4 l_0_2_4) (* l_0_2_5 l_0_2_5)) ?x1071)))
 (let ((?x1427 (- (+ (* (* (* (- 2.0) _a_2_) l_0_2_1) l_0_2_4) _a_3_) (* _a_5_ ?x1072))))
 (= (+ ?x1427 ?x1428) 0.0)))))))
(assert
 (let ((?x1013 (* l_0_2_9 l_0_2_9)))
 (let ((?x1007 (* l_0_2_8 l_0_2_8)))
 (let ((?x1453 (+ (* (- _a_4_) (+ (* l_0_2_2 l_0_2_2) (* l_0_2_3 l_0_2_3))) _a_4_)))
 (= (+ (+ ?x1453 ?x1007) ?x1013) 0.0)))))
(assert
 (let ((?x1133 (* 2.0 l_0_2_10)))
 (let ((?x1428 (* ?x1133 l_0_2_7)))
 (let ((?x567 (* 2.0 _a_4_)))
 (let ((?x1064 (+ (* (* 2.0 l_0_2_2) l_0_2_4) (* (* 2.0 l_0_2_3) l_0_2_5))))
 (let ((?x565 (- _a_1_)))
 (let ((?x1469 (- (- (* ?x565 ?x1064) (* (* (* 2.0 _a_3_) l_0_2_1) l_0_2_2)) (* (* ?x567 l_0_2_1) l_0_2_4))))
 (let ((?x1472 (- (+ ?x1469 ?x567) (* _a_5_ (+ (* l_0_2_2 l_0_2_2) (* l_0_2_3 l_0_2_3))))))
 (= (+ ?x1472 ?x1428) 0.0)))))))))
(assert
 (let ((?x1510 (- (* (* (* (- 2.0) _a_0_) l_0_2_1) l_0_2_2) (* (* _a_1_ l_0_2_1) l_0_2_1))))
 (let ((?x1515 (- (- ?x1510 (* (* 2.0 l_0_2_13) l_0_2_14)) (* (* 6.0 l_0_2_7) l_0_2_8))))
 (= ?x1515 0.0))))
(assert
 (let ((?x1379 (* (* 2.0 l_0_2_7) l_0_2_8)))
 (let ((?x1540 (- (* (- _a_1_) (+ (* l_0_2_2 l_0_2_2) (* l_0_2_3 l_0_2_3))) (* (* (* 2.0 _a_4_) l_0_2_1) l_0_2_2))))
 (= (+ ?x1540 ?x1379) 0.0))))
(assert
 (>= l_0_2_1 0.0))
(assert
 (>= l_0_2_3 0.0))
(assert
 (>= l_0_2_6 0.0))
(assert
 (>= l_0_2_7 0.0))
(assert
 (>= l_0_2_9 0.0))
(assert
 (>= l_0_2_12 0.0))
(assert
 (>= l_0_2_13 0.0))
(assert
 (>= l_0_2_15 0.0))
(assert
 (>= l_0_2_18 0.0))
(check-sat)
(get-model)